Cost: 369
0-30-2-22-42-41-43-23-49-0
0-8-19-14-11-10-26-0
0-17-44-32-25-9-39-12-0
0-46-34-4-0
0-27-13-15-5-47-48-29-45-0
Cost: 369
0-30-2-22-42-41-43-23-49-0
0-8-19-14-11-10-26-0
0-17-44-32-25-9-39-12-0
0-46-34-4-0
0-27-13-15-5-47-48-29-45-0
Cost: 369
0-30-2-22-42-41-43-23-49-0
0-8-19-14-11-10-26-0
0-17-44-32-25-9-39-12-0
0-46-34-4-0
0-27-13-15-5-47-48-29-45-0
Cost: 369
0-30-2-22-42-41-43-23-49-0
0-8-19-14-11-10-26-0
0-17-44-32-25-9-39-12-0
0-46-34-4-0
0-27-13-15-5-47-48-29-45-0
Cost: 369
0-30-2-22-42-41-43-23-49-0
0-8-19-14-11-10-26-0
0-17-44-32-25-9-39-12-0
0-46-34-4-0
0-27-13-15-5-47-48-29-45-0
Cost: 369
0-30-2-22-42-41-43-23-49-0
0-8-19-14-11-10-26-0
0-17-44-32-25-9-39-12-0
0-46-34-4-0
0-27-13-15-5-47-48-29-45-0
Cost: 369
0-30-2-22-42-41-43-23-49-0
0-8-19-14-11-10-26-0
0-17-44-32-25-9-39-12-0
0-46-34-4-0
0-27-13-15-5-47-48-29-45-0
Cost: 369
0-30-2-22-42-41-43-23-49-0
0-8-19-14-11-10-26-0
0-17-44-32-25-9-39-12-0
0-46-34-4-0
0-27-13-15-5-47-48-29-45-0
Cost: 369
0-30-2-22-42-41-43-23-49-0
0-8-19-14-11-10-26-0
0-17-44-32-25-9-39-12-0
0-46-34-4-0
0-27-13-15-5-47-48-29-45-0
Cost: 369
0-30-2-22-42-41-43-23-49-0
0-8-19-14-11-10-26-0
0-17-44-32-25-9-39-12-0
0-46-34-4-0
0-27-13-15-5-47-48-29-45-0
Cost: 369
0-8-19-14-11-10-26-0
0-30-2-22-42-41-43-23-49-0
0-45-29-48-47-5-15-13-27-0
0-12-39-9-25-32-44-17-0
0-4-34-46-0
Cost: 369
0-8-19-14-11-10-26-0
0-30-2-22-42-41-43-23-49-0
0-45-29-48-47-5-15-13-27-0
0-12-39-9-25-32-44-17-0
0-4-34-46-0
Cost: 369
0-8-19-14-11-10-26-0
0-30-2-22-42-41-43-23-49-0
0-45-29-48-47-5-15-13-27-0
0-12-39-9-25-32-44-17-0
0-4-34-46-0
Cost: 369
0-49-23-43-41-42-22-2-30-0
0-27-13-15-5-47-48-29-45-0
0-26-10-11-14-19-8-0
0-12-39-9-25-32-44-17-0
0-46-34-4-0
Cost: 369
0-8-19-14-11-10-26-0
0-30-2-22-42-41-43-23-49-0
0-45-29-48-47-5-15-13-27-0
0-12-39-9-25-32-44-17-0
0-4-34-46-0
Cost: 369
0-8-19-14-11-10-26-0
0-30-2-22-42-41-43-23-49-0
0-45-29-48-47-5-15-13-27-0
0-12-39-9-25-32-44-17-0
0-4-34-46-0
Cost: 369
0-4-34-46-0
0-8-19-14-11-10-26-0
0-17-44-32-25-9-39-12-0
0-49-23-43-41-42-22-2-30-0
0-27-13-15-5-47-48-29-45-0
Cost: 369
0-8-19-14-11-38-10-0
0-27-13-15-5-47-48-29-45-0
0-46-34-4-0
0-30-2-22-42-41-43-23-49-0
0-17-44-32-25-9-12-26-0
Cost: 369
0-27-13-15-5-47-48-29-45-0
0-49-23-43-41-42-22-2-30-0
0-4-34-46-0
0-17-44-32-25-9-39-12-0
0-8-19-14-11-10-26-0
Cost: 369
0-27-13-15-5-47-48-29-45-0
0-49-23-43-41-42-22-2-30-0
0-4-34-46-0
0-17-44-32-25-9-39-12-0
0-8-19-14-11-10-26-0
Cost: 369
0-10-38-11-14-19-8-0
0-4-34-46-0
0-27-13-15-5-47-48-29-45-0
0-17-44-32-25-9-12-26-0
0-30-2-22-42-41-43-23-49-0
Cost: 369
0-10-38-11-14-19-8-0
0-4-34-46-0
0-27-13-15-5-47-48-29-45-0
0-17-44-32-25-9-12-26-0
0-30-2-22-42-41-43-23-49-0
Cost: 369
0-30-2-22-42-41-43-23-49-0
0-17-44-32-25-9-39-12-0
0-27-13-15-5-47-48-29-45-0
0-8-19-14-11-10-26-0
0-4-34-46-0
Cost: 369
0-10-38-11-14-19-8-0
0-4-34-46-0
0-27-13-15-5-47-48-29-45-0
0-17-44-32-25-9-12-26-0
0-30-2-22-42-41-43-23-49-0
Cost: 369
0-8-19-14-11-38-10-0
0-27-13-15-5-47-48-29-45-0
0-46-34-4-0
0-30-2-22-42-41-43-23-49-0
0-17-44-32-25-9-12-26-0
Cost: 369
0-27-13-15-5-47-48-29-45-0
0-49-23-43-41-42-22-2-30-0
0-4-34-46-0
0-17-44-32-25-9-39-12-0
0-8-19-14-11-10-26-0
Cost: 369
0-49-23-43-41-42-22-2-30-0
0-12-39-9-25-32-44-17-0
0-27-13-15-5-47-48-29-45-0
0-26-10-11-14-19-8-0
0-46-34-4-0
Cost: 369
0-49-23-43-41-42-22-2-30-0
0-4-34-46-0
0-45-29-48-47-5-15-13-27-0
0-12-39-9-25-32-44-17-0
0-26-10-11-14-19-8-0
Cost: 369
0-17-44-32-25-9-39-12-0
0-46-34-4-0
0-27-13-15-5-47-48-29-45-0
0-30-2-22-42-41-43-23-49-0
0-26-10-11-14-19-8-0
Cost: 369
0-12-39-9-25-32-44-17-0
0-46-34-4-0
0-45-29-48-47-5-15-13-27-0
0-8-19-14-11-10-26-0
0-49-23-43-41-42-22-2-30-0
Cost: 369
0-30-2-22-42-41-43-23-49-0
0-26-10-11-14-19-8-0
0-46-34-4-0
0-17-44-32-25-9-39-12-0
0-27-13-15-5-47-48-29-45-0
